(set-logic ALL)
(declare-const input_number_VAR Int)
(assert (not (< input_number_VAR 0)))
(assert (< 1 input_number_VAR))
(assert (< 2 input_number_VAR))
(assert (< 3 input_number_VAR))
(assert (< 4 input_number_VAR))
(check-sat)
(get-value (input_number_VAR))
